NAME : graph20
COMMENT : H Algorithm Solution by Oscar Riveros [http://twitter.com/maxtuno]
TYPE : TOUR
DIMENSION : 174
TOUR_SECTION
93
171
152
103
1
166
130
116
47
26
169
135
108
4
100
148
23
104
119
167
9
122
62
157
39
51
73
168
155
134
56
131
81
44
153
20
97
160
118
5
159
154
90
48
162
28
125
89
121
146
139
21
102
13
151
59
64
126
137
136
34
49
120
96
27
165
161
14
101
173
16
65
149
91
142
172
170
105
85
37
141
143
123
66
19
71
17
7
50
10
115
145
12
76
88
128
174
36
86
133
11
140
2
42
158
41
98
33
40
156
80
150
69
127
79
144
82
111
117
113
163
75
53
43
147
84
87
99
58
138
106
15
109
72
32
3
24
8
63
114
29
112
95
52
110
18
38
54
46
57
67
94
74
78
129
83
61
30
60
164
25
107
6
68
70
132
124
55
45
92
22
77
31
35
-1
EOF
